NumberOfAtoms 200

%block LatticeVectors
   43.4637011521428747    0.0000000000000000    0.0000000000000000
  -21.7318505760714373   37.6406693402507315    0.0000000000000000
    0.0000000000000000    0.0000000000000000   28.3458920557453524
%endblock LatticeVectors

AtomicCoordinatesFormat  Fractional

LatticeConstant 1.0 Bohr

%block AtomicCoordinatesAndAtomicSpecies
   0.0000000000000000   0.0000000000000000   0.0000000000000000 1
   0.1000000000000000   0.0000000000000000   0.0000000000000000 1
   0.2000000000000000   0.0000000000000000   0.0000000000000000 1
   0.3000000000000000   0.0000000000000000   0.0000000000000000 1
   0.4000000000000000   0.0000000000000000   0.0000000000000000 1
   0.5000000000000000   0.0000000000000000   0.0000000000000000 1
   0.6000000000000000   0.0000000000000000   0.0000000000000000 1
   0.7000000000000000   0.0000000000000000   0.0000000000000000 1
   0.8000000000000000   0.0000000000000000   0.0000000000000000 1
   0.9000000000000000   0.0000000000000000   0.0000000000000000 1
   0.0000000000000000   0.1000000000000000   0.0000000000000000 1
   0.1000000000000000   0.1000000000000000   0.0000000000000000 1
   0.2000000000000000   0.1000000000000000   0.0000000000000000 1
   0.3000000000000000   0.1000000000000000   0.0000000000000000 1
   0.4000000000000000   0.1000000000000000   0.0000000000000000 1
   0.5000000000000000   0.1000000000000000   0.0000000000000000 1
   0.6000000000000000   0.1000000000000000   0.0000000000000000 1
   0.7000000000000000   0.1000000000000000   0.0000000000000000 1
   0.8000000000000000   0.1000000000000000   0.0000000000000000 1
   0.9000000000000000   0.1000000000000000   0.0000000000000000 1
   0.0000000000000000   0.2000000000000000   0.0000000000000000 1
   0.1000000000000000   0.2000000000000000   0.0000000000000000 1
   0.2000000000000000   0.2000000000000000   0.0000000000000000 1
   0.3000000000000000   0.2000000000000000   0.0000000000000000 1
   0.4000000000000000   0.2000000000000000   0.0000000000000000 1
   0.5000000000000000   0.2000000000000000   0.0000000000000000 1
   0.6000000000000000   0.2000000000000000   0.0000000000000000 1
   0.7000000000000000   0.2000000000000000   0.0000000000000000 1
   0.8000000000000000   0.2000000000000000   0.0000000000000000 1
   0.9000000000000000   0.2000000000000000   0.0000000000000000 1
   0.0000000000000000   0.3000000000000000   0.0000000000000000 1
   0.1000000000000000   0.3000000000000000   0.0000000000000000 1
   0.2000000000000000   0.3000000000000000   0.0000000000000000 1
   0.3000000000000000   0.3000000000000000   0.0000000000000000 1
   0.4000000000000000   0.3000000000000000   0.0000000000000000 1
   0.5000000000000000   0.3000000000000000   0.0000000000000000 1
   0.6000000000000000   0.3000000000000000   0.0000000000000000 1
   0.7000000000000000   0.3000000000000000   0.0000000000000000 1
   0.8000000000000000   0.3000000000000000   0.0000000000000000 1
   0.9000000000000000   0.3000000000000000   0.0000000000000000 1
   0.0000000000000000   0.4000000000000000   0.0000000000000000 1
   0.1000000000000000   0.4000000000000000   0.0000000000000000 1
   0.2000000000000000   0.4000000000000000   0.0000000000000000 1
   0.3000000000000000   0.4000000000000000   0.0000000000000000 1
   0.4000000000000000   0.4000000000000000   0.0000000000000000 1
   0.5000000000000000   0.4000000000000000   0.0000000000000000 1
   0.6000000000000000   0.4000000000000000   0.0000000000000000 1
   0.7000000000000000   0.4000000000000000   0.0000000000000000 1
   0.8000000000000000   0.4000000000000000   0.0000000000000000 1
   0.9000000000000000   0.4000000000000000   0.0000000000000000 1
   0.0000000000000000   0.5000000000000000   0.0000000000000000 1
   0.1000000000000000   0.5000000000000000   0.0000000000000000 1
   0.2000000000000000   0.5000000000000000   0.0000000000000000 1
   0.3000000000000000   0.5000000000000000   0.0000000000000000 1
   0.4000000000000000   0.5000000000000000   0.0000000000000000 1
   0.5000000000000000   0.5000000000000000   0.0000000000000000 1
   0.6000000000000000   0.5000000000000000   0.0000000000000000 1
   0.7000000000000000   0.5000000000000000   0.0000000000000000 1
   0.8000000000000000   0.5000000000000000   0.0000000000000000 1
   0.9000000000000000   0.5000000000000000   0.0000000000000000 1
   0.0000000000000000   0.6000000000000000   0.0000000000000000 1
   0.1000000000000000   0.6000000000000000   0.0000000000000000 1
   0.2000000000000000   0.6000000000000000   0.0000000000000000 1
   0.3000000000000000   0.6000000000000000   0.0000000000000000 1
   0.4000000000000000   0.6000000000000000   0.0000000000000000 1
   0.5000000000000000   0.6000000000000000   0.0000000000000000 1
   0.6000000000000000   0.6000000000000000   0.0000000000000000 1
   0.7000000000000000   0.6000000000000000   0.0000000000000000 1
   0.8000000000000000   0.6000000000000000   0.0000000000000000 1
   0.9000000000000000   0.6000000000000000   0.0000000000000000 1
   0.0000000000000000   0.7000000000000000   0.0000000000000000 1
   0.1000000000000000   0.7000000000000000   0.0000000000000000 1
   0.2000000000000000   0.7000000000000000   0.0000000000000000 1
   0.3000000000000000   0.7000000000000000   0.0000000000000000 1
   0.4000000000000000   0.7000000000000000   0.0000000000000000 1
   0.5000000000000000   0.7000000000000000   0.0000000000000000 1
   0.6000000000000000   0.7000000000000000   0.0000000000000000 1
   0.7000000000000000   0.7000000000000000   0.0000000000000000 1
   0.8000000000000000   0.7000000000000000   0.0000000000000000 1
   0.9000000000000000   0.7000000000000000   0.0000000000000000 1
   0.0000000000000000   0.8000000000000000   0.0000000000000000 1
   0.1000000000000000   0.8000000000000000   0.0000000000000000 1
   0.2000000000000000   0.8000000000000000   0.0000000000000000 1
   0.3000000000000000   0.8000000000000000   0.0000000000000000 1
   0.4000000000000000   0.8000000000000000   0.0000000000000000 1
   0.5000000000000000   0.8000000000000000   0.0000000000000000 1
   0.6000000000000000   0.8000000000000000   0.0000000000000000 1
   0.7000000000000000   0.8000000000000000   0.0000000000000000 1
   0.8000000000000000   0.8000000000000000   0.0000000000000000 1
   0.9000000000000000   0.8000000000000000   0.0000000000000000 1
   0.0000000000000000   0.9000000000000000   0.0000000000000000 1
   0.1000000000000000   0.9000000000000000   0.0000000000000000 1
   0.2000000000000000   0.9000000000000000   0.0000000000000000 1
   0.3000000000000000   0.9000000000000000   0.0000000000000000 1
   0.4000000000000000   0.9000000000000000   0.0000000000000000 1
   0.5000000000000000   0.9000000000000000   0.0000000000000000 1
   0.6000000000000000   0.9000000000000000   0.0000000000000000 1
   0.7000000000000000   0.9000000000000000   0.0000000000000000 1
   0.8000000000000000   0.9000000000000000   0.0000000000000000 1
   0.9000000000000000   0.9000000000000000   0.0000000000000000 1
   0.0666666666666667   0.0333333333333333   0.0000000000000000 1
   0.1666666666666667   0.0333333333333333   0.0000000000000000 1
   0.2666666666666667   0.0333333333333333   0.0000000000000000 1
   0.3666666666666667   0.0333333333333333   0.0000000000000000 1
   0.4666666666666667   0.0333333333333333   0.0000000000000000 1
   0.5666666666666667   0.0333333333333333   0.0000000000000000 1
   0.6666666666666667   0.0333333333333333   0.0000000000000000 1
   0.7666666666666667   0.0333333333333333   0.0000000000000000 1
   0.8666666666666666   0.0333333333333333   0.0000000000000000 1
   0.9666666666666666   0.0333333333333333   0.0000000000000000 1
   0.0666666666666667   0.1333333333333334   0.0000000000000000 1
   0.1666666666666667   0.1333333333333334   0.0000000000000000 1
   0.2666666666666667   0.1333333333333334   0.0000000000000000 1
   0.3666666666666667   0.1333333333333334   0.0000000000000000 1
   0.4666666666666667   0.1333333333333334   0.0000000000000000 1
   0.5666666666666667   0.1333333333333334   0.0000000000000000 1
   0.6666666666666667   0.1333333333333334   0.0000000000000000 1
   0.7666666666666667   0.1333333333333334   0.0000000000000000 1
   0.8666666666666666   0.1333333333333334   0.0000000000000000 1
   0.9666666666666666   0.1333333333333334   0.0000000000000000 1
   0.0666666666666667   0.2333333333333333   0.0000000000000000 1
   0.1666666666666667   0.2333333333333333   0.0000000000000000 1
   0.2666666666666667   0.2333333333333333   0.0000000000000000 1
   0.3666666666666667   0.2333333333333333   0.0000000000000000 1
   0.4666666666666667   0.2333333333333333   0.0000000000000000 1
   0.5666666666666667   0.2333333333333333   0.0000000000000000 1
   0.6666666666666667   0.2333333333333333   0.0000000000000000 1
   0.7666666666666667   0.2333333333333333   0.0000000000000000 1
   0.8666666666666666   0.2333333333333333   0.0000000000000000 1
   0.9666666666666666   0.2333333333333333   0.0000000000000000 1
   0.0666666666666667   0.3333333333333334   0.0000000000000000 1
   0.1666666666666667   0.3333333333333334   0.0000000000000000 1
   0.2666666666666667   0.3333333333333334   0.0000000000000000 1
   0.3666666666666667   0.3333333333333334   0.0000000000000000 1
   0.4666666666666667   0.3333333333333334   0.0000000000000000 1
   0.5666666666666667   0.3333333333333334   0.0000000000000000 1
   0.6666666666666667   0.3333333333333334   0.0000000000000000 1
   0.7666666666666667   0.3333333333333334   0.0000000000000000 1
   0.8666666666666666   0.3333333333333334   0.0000000000000000 1
   0.9666666666666666   0.3333333333333334   0.0000000000000000 1
   0.0666666666666667   0.4333333333333333   0.0000000000000000 1
   0.1666666666666667   0.4333333333333333   0.0000000000000000 1
   0.2666666666666667   0.4333333333333333   0.0000000000000000 1
   0.3666666666666667   0.4333333333333333   0.0000000000000000 1
   0.4666666666666667   0.4333333333333333   0.0000000000000000 1
   0.5666666666666667   0.4333333333333333   0.0000000000000000 1
   0.6666666666666667   0.4333333333333333   0.0000000000000000 1
   0.7666666666666667   0.4333333333333333   0.0000000000000000 1
   0.8666666666666666   0.4333333333333333   0.0000000000000000 1
   0.9666666666666666   0.4333333333333333   0.0000000000000000 1
   0.0666666666666667   0.5333333333333333   0.0000000000000000 1
   0.1666666666666667   0.5333333333333333   0.0000000000000000 1
   0.2666666666666667   0.5333333333333333   0.0000000000000000 1
   0.3666666666666667   0.5333333333333333   0.0000000000000000 1
   0.4666666666666667   0.5333333333333333   0.0000000000000000 1
   0.5666666666666667   0.5333333333333333   0.0000000000000000 1
   0.6666666666666667   0.5333333333333333   0.0000000000000000 1
   0.7666666666666667   0.5333333333333333   0.0000000000000000 1
   0.8666666666666666   0.5333333333333333   0.0000000000000000 1
   0.9666666666666666   0.5333333333333333   0.0000000000000000 1
   0.0666666666666667   0.6333333333333333   0.0000000000000000 1
   0.1666666666666667   0.6333333333333333   0.0000000000000000 1
   0.2666666666666667   0.6333333333333333   0.0000000000000000 1
   0.3666666666666667   0.6333333333333333   0.0000000000000000 1
   0.4666666666666667   0.6333333333333333   0.0000000000000000 1
   0.5666666666666667   0.6333333333333333   0.0000000000000000 1
   0.6666666666666667   0.6333333333333333   0.0000000000000000 1
   0.7666666666666667   0.6333333333333333   0.0000000000000000 1
   0.8666666666666666   0.6333333333333333   0.0000000000000000 1
   0.9666666666666666   0.6333333333333333   0.0000000000000000 1
   0.0666666666666667   0.7333333333333333   0.0000000000000000 1
   0.1666666666666667   0.7333333333333333   0.0000000000000000 1
   0.2666666666666667   0.7333333333333333   0.0000000000000000 1
   0.3666666666666667   0.7333333333333333   0.0000000000000000 1
   0.4666666666666667   0.7333333333333333   0.0000000000000000 1
   0.5666666666666667   0.7333333333333333   0.0000000000000000 1
   0.6666666666666667   0.7333333333333333   0.0000000000000000 1
   0.7666666666666667   0.7333333333333333   0.0000000000000000 1
   0.8666666666666666   0.7333333333333333   0.0000000000000000 1
   0.9666666666666666   0.7333333333333333   0.0000000000000000 1
   0.0666666666666667   0.8333333333333334   0.0000000000000000 1
   0.1666666666666667   0.8333333333333334   0.0000000000000000 1
   0.2666666666666667   0.8333333333333334   0.0000000000000000 1
   0.3666666666666667   0.8333333333333334   0.0000000000000000 1
   0.4666666666666667   0.8333333333333334   0.0000000000000000 1
   0.5666666666666667   0.8333333333333334   0.0000000000000000 1
   0.6666666666666667   0.8333333333333334   0.0000000000000000 1
   0.7666666666666667   0.8333333333333334   0.0000000000000000 1
   0.8666666666666666   0.8333333333333334   0.0000000000000000 1
   0.9666666666666666   0.8333333333333334   0.0000000000000000 1
   0.0666666666666667   0.9333333333333333   0.0000000000000000 1
   0.1666666666666667   0.9333333333333333   0.0000000000000000 1
   0.2666666666666667   0.9333333333333333   0.0000000000000000 1
   0.3666666666666667   0.9333333333333333   0.0000000000000000 1
   0.4666666666666667   0.9333333333333333   0.0000000000000000 1
   0.5666666666666667   0.9333333333333333   0.0000000000000000 1
   0.6666666666666667   0.9333333333333333   0.0000000000000000 1
   0.7666666666666667   0.9333333333333333   0.0000000000000000 1
   0.8666666666666666   0.9333333333333333   0.0000000000000000 1
   0.9666666666666666   0.9333333333333333   0.0000000000000000 1
%endblock AtomicCoordinatesAndAtomicSpecies
