 &input
   fildyn = 'gr.dyn',
     zasr = 'simple',
    flfrc = 'gr.fc'
 /
